data/MCDM/NO_CORR/GEN_FROM_60/16_ITEMS_1000_GEN/K5016W06.KNP.mps
NAME          BLANK   
ROWS
 N  OBJROW
 L  R0000000
COLUMNS
    C0000000  OBJROW     -168.         R0000000  684.        
    C0000001  OBJROW     -547.         R0000000  45.         
    C0000002  OBJROW     -513.         R0000000  805.        
    C0000003  OBJROW     -914.         R0000000  302.        
    C0000004  OBJROW     -226.         R0000000  788.        
    C0000005  OBJROW     -65.          R0000000  623.        
    C0000006  OBJROW     -213.         R0000000  258.        
    C0000007  OBJROW     -37.          R0000000  49.         
    C0000008  OBJROW     -693.         R0000000  79.         
    C0000009  OBJROW     -665.         R0000000  618.        
    C0000010  OBJROW     -336.         R0000000  451.        
    C0000011  OBJROW     -18.          R0000000  512.        
    C0000012  OBJROW     -495.         R0000000  273.        
    C0000013  OBJROW     -143.         R0000000  114.        
    C0000014  OBJROW     -269.         R0000000  234.        
    C0000015  OBJROW     -850.         R0000000  402.        
RHS
    RHS       R0000000  14444.      
BOUNDS
 BV BOUND     C0000000  1.          
 BV BOUND     C0000001  1.          
 BV BOUND     C0000002  1.          
 BV BOUND     C0000003  1.          
 BV BOUND     C0000004  1.          
 BV BOUND     C0000005  1.          
 BV BOUND     C0000006  1.          
 BV BOUND     C0000007  1.          
 BV BOUND     C0000008  1.          
 BV BOUND     C0000009  1.          
 BV BOUND     C0000010  1.          
 BV BOUND     C0000011  1.          
 BV BOUND     C0000012  1.          
 BV BOUND     C0000013  1.          
 BV BOUND     C0000014  1.          
 BV BOUND     C0000015  1.          
ENDATA
