data/MCDM/NO_CORR/GEN_FROM_60/16_ITEMS_1000_GEN/K5016W06.KNP.txt
N 16
M 17
LC 16
LC 17
LC 18
LC 19
LC 20
LC 21
LC 22
LC 23
LC 24
LC 25
LC 26
LC 27
LC 28
LC 29
LC 30
LC 31
LR 1
LR 2
LR 3
LR 4
LR 5
LR 6
LR 7
LR 8
LR 9
LR 10
LR 11
LR 12
LR 13
LR 14
LR 15
LR 16
LR 17
LO -168
LO -547
LO -513
LO -914
LO -226
LO -65
LO -213
LO -37
LO -693
LO -665
LO -336
LO -18
LO -495
LO -143
LO -269
LO -850
OS 1
IC 62
IC 300
IC 372
IC 985
IC 562
IC 417
IC 619
IC 934
IC 100
IC 134
IC 317
IC 478
IC 220
IC 608
IC 314
IC 965
IB 3694
